% From JaCoP's nonogramRepository/data013.nin
 rows = 25;
 row_rule_len = 5;
 row_rules = array2d(1..rows, 1..row_rule_len, 
[
 0,0,0,0,4,
 0,0,0,0,6,
 0,0,0,0,7,
 0,0,0,0,8,
 0,0,0,0,9,
 0,0,0,0,11,
 0,0,0,0,15,
 0,0,0,15,1,
 0,0,0,15,1,
 0,0,0,14,1,
 0,0,0,13,1,
 0,0,0,11,5,
 0,0,1,5,6,
 0,0,0,0,28,
 0,0,8,5,2,
 0,8,6,9,2,
 0,8,7,9,3,
 0,0,0,26,2,
 3,3,1,1,3,
 3,3,1,1,3,
 3,3,1,1,3,
 0,3,3,3,3,
 3,3,1,1,3,
 3,3,2,2,3,
 0,0,1,1,1
]);

 cols = 30;
 col_rule_len = 5;
 col_rules = array2d(1..cols, 1..col_rule_len, 
[
 0,0,0,0,4,
 0,0,0,3,6,
 0,0,0,5,5,
 0,0,0,6,11,
 0,0,0,6,12,
 0,0,0,6,11,
 0,0,0,6,5,
 0,0,0,6,5,
 0,0,7,1,1,
 0,0,0,7,5,
 0,0,0,7,5,
 0,0,0,8,5,
 0,0,0,8,11,
 0,0,0,8,13,
 0,0,8,2,9,
 0,0,8,2,2,
 0,8,2,1,1,
 0,0,7,3,3,
 6,2,1,1,3,
 5,3,1,3,1,
 0,3,1,1,9,
 0,0,3,3,1,
 0,0,0,2,9,
 0,0,2,3,1,
 0,0,0,2,3,
 0,0,0,2,2,
 0,0,0,3,7,
 0,0,0,4,7,
 0,0,0,0,9,
 0,0,0,0,2
]);

